solution status: optimal solution found
objective value:                                   23
x0_1                                                1 	(obj:0)
x1_6                                                1 	(obj:0)
x2_5                                                1 	(obj:0)
x3_7                                                1 	(obj:0)
x4_2                                                1 	(obj:0)
x5_8                                                1 	(obj:0)
x6_4                                                1 	(obj:0)
x7_3                                                1 	(obj:0)
x8_9                                                1 	(obj:0)
quadobjvar                                         23 	(obj:1)
